num_stars = 2;
dim = 10;
sectors = [|
1, 2, 2, 2, 2, 3, 4, 4, 4, 4|
1, 1, 2, 2, 3, 3, 4, 4, 4, 5|
1, 2, 2, 3, 3, 2, 4, 4, 4, 5|
6, 2, 2, 2, 3, 2, 5, 5, 5, 5|
6, 6, 6, 2, 2, 2, 7, 5, 5, 5|
8, 6, 6, 2, 8, 2, 7, 5, 7, 9|
8, 6, 6, 2, 8, 8, 7, 7, 7, 9|
8, 6, 6, 2, 8, 8, 7, 7, 9, 9|
8, 8, 8, 8, 8, 10, 7, 7, 9, 10|
8, 8, 10, 10, 10, 10, 10, 10, 10, 10|
];